
  18    0


   0   8 2 3 4 5 14 15 16 17 
  10   7 13 12 11 10 8 7 6 
   7   2 8 6 
   5   2 7 6 
  10   1 9 
   1   1 18
   1   1 18
  10   1 18
   7   1 18
   4   1 18
   6   1 18
   6   1 18
   7   1 18
   8   1 18
   6   1 18
   6   1 18
   6   1 18
   0   0 
